5624344132872775763506,7,1,2,09,10,1,2,010,2,1,2,03,8,1,2,01,11,1,2,010,7,1,2,05,2,1,2,05,8,1,2,012,3,1,2,06,9,1,2,03,10,1,2,09,7,1,2,06,13,1,2,012,7,1,2,012,4,1,2,09,10,1,2,05,4,1,2,02,13,1,2,03,2,1,2,04,4,1,2,013,9,1,2,03,7,1,2,012,7,1,2,03,15,1,2,015,11,1,2,05,15,1,2,013,7,1,2,013,8,1,2,08,6,1,2,013,3,1,2,06,13,1,2,01,9,1,2,06,12,1,2,010,2,1,2,014,13,1,2,012,3,1,2,08,12,1,2,09,15,1,2,06,13,1,2,06,12,1,2,011,15,1,2,05,10,1,2,02,3,1,2,05,2,1,2,012,12,1,2,05,4,1,2,05,12,1,2,05,12,1,2,013,15,1,2,013,3,1,2,0